c User generated cnf file
p cnf 15 60
9 1 -2 0 
11 -1 13 0 
-4 14 7 0 
12 9 -1 0 
4 13 -2 0 
-5 15 7 0 
11 -4 3 0 
-1 7 14 0 
-3 12 14 0 
-6 4 7 0 
-7 8 11 0 
15 -1 9 0 
4 -10 4 0 
13 2 -10 0 
-8 3 8 0 
-13 13 1 0 
-15 4 5 0 
-2 1 12 0 
2 -14 2 0 
11 -3 6 0 
-9 12 14 0 
-15 14 13 0 
9 13 -14 0 
-10 15 2 0 
-6 7 3 0 
4 15 -14 0 
2 8 -7 0 
2 -5 7 0 
8 12 -15 0 
11 15 -12 0 
4 -10 4 0 
2 15 -8 0 
-4 12 3 0 
7 -12 11 0 
6 -11 8 0 
-8 7 9 0 
1 -9 13 0 
5 10 -14 0 
-6 2 7 0 
9 -9 15 0 
-8 2 3 0 
-3 3 1 0 
-1 2 5 0 
-14 8 9 0 
11 -3 14 0 
-2 13 6 0 
5 -6 4 0 
-6 7 15 0 
-1 15 11 0 
-8 14 3 0 
9 15 -5 0 
9 -5 13 0 
-6 13 5 0 
6 -3 1 0 
-10 5 6 0 
7 -6 14 0 
1 -1 9 0 
13 -14 8 0 
14 -10 6 0 
-12 12 13 0 
